\ Model birth-death-regulation-capture-efficiency
\ LP format - for model browsing. Use MPS format to capture full model detail.
Minimize
  k_reg
Subject To
 R0: k_deg_2 = 1
 B_lb_0,_0: p[0,0] + 0.1 p[0,1] + 0.01 p[0,2] + 0.001 p[0,3] + 0.1 p[1,0]
   + 0.01 p[1,1] + 0.001 p[1,2] + 0.0001 p[1,3] + 0.01 p[2,0]
   + 0.001 p[2,1] + 0.0001 p[2,2] + 1e-05 p[2,3] + 0.001 p[3,0]
   + 0.0001 p[3,1] + 1e-05 p[3,2] + 1e-06 p[3,3] + 0.0001 p[4,0]
   + 1e-05 p[4,1] + 1e-06 p[4,2] + 1e-07 p[4,3] >= 0.2274148148148148
 B_ub_0,_0: p[0,0] + 0.1 p[0,1] + 0.01 p[0,2] + 0.001 p[0,3] + 0.1 p[1,0]
   + 0.01 p[1,1] + 0.001 p[1,2] + 0.0001 p[1,3] + 0.01 p[2,0]
   + 0.001 p[2,1] + 0.0001 p[2,2] + 1e-05 p[2,3] + 0.001 p[3,0]
   + 0.0001 p[3,1] + 1e-05 p[3,2] + 1e-06 p[3,3] + 0.0001 p[4,0]
   + 1e-05 p[4,1] + 1e-06 p[4,2] + 1e-07 p[4,3] <= 0.3006
 B_lb_0,_1: 0.9 p[0,1] + 0.18 p[0,2] + 0.027 p[0,3] + 0.09 p[1,1]
   + 0.018 p[1,2] + 0.0027 p[1,3] + 0.009 p[2,1] + 0.0018 p[2,2]
   + 0.00027 p[2,3] + 0.0009 p[3,1] + 0.00018 p[3,2] + 2.7e-05 p[3,3]
   + 9e-05 p[4,1] + 1.8e-05 p[4,2] + 2.7e-06 p[4,3] >= 0.1360148148148148
 B_ub_0,_1: 0.9 p[0,1] + 0.18 p[0,2] + 0.027 p[0,3] + 0.09 p[1,1]
   + 0.018 p[1,2] + 0.0027 p[1,3] + 0.009 p[2,1] + 0.0018 p[2,2]
   + 0.00027 p[2,3] + 0.0009 p[3,1] + 0.00018 p[3,2] + 2.7e-05 p[3,3]
   + 9e-05 p[4,1] + 1.8e-05 p[4,2] + 2.7e-06 p[4,3] <= 0.2068
 B_lb_0,_2: 0.81 p[0,2] + 0.243 p[0,3] + 0.081 p[1,2] + 0.0243 p[1,3]
   + 0.0081 p[2,2] + 0.00243 p[2,3] + 0.00081 p[3,2] + 0.000243 p[3,3]
   + 8.1e-05 p[4,2] + 2.43e-05 p[4,3] >= 0.0144148148148148
 B_ub_0,_2: 0.81 p[0,2] + 0.243 p[0,3] + 0.081 p[1,2] + 0.0243 p[1,3]
   + 0.0081 p[2,2] + 0.00243 p[2,3] + 0.00081 p[3,2] + 0.000243 p[3,3]
   + 8.1e-05 p[4,2] + 2.43e-05 p[4,3] <= 0.0768
 B_lb_0,_3: 0.729 p[0,3] + 0.0729 p[1,3] + 0.00729 p[2,3] + 0.000729 p[3,3]
   + 7.29e-05 p[4,3] >= -0.0375851851851852
 B_ub_0,_3: 0.729 p[0,3] + 0.0729 p[1,3] + 0.00729 p[2,3] + 0.000729 p[3,3]
   + 7.29e-05 p[4,3] <= 0.017
 B_lb_1,_0: 0.9 p[1,0] + 0.09 p[1,1] + 0.009 p[1,2] + 0.0009 p[1,3]
   + 0.18 p[2,0] + 0.018 p[2,1] + 0.0018 p[2,2] + 0.00018 p[2,3]
   + 0.027 p[3,0] + 0.0027 p[3,1] + 0.00027 p[3,2] + 2.7e-05 p[3,3]
   + 0.0036 p[4,0] + 0.00036 p[4,1] + 3.6e-05 p[4,2] + 3.6e-06 p[4,3]
   >= 0.1330148148148148
 B_ub_1,_0: 0.9 p[1,0] + 0.09 p[1,1] + 0.009 p[1,2] + 0.0009 p[1,3]
   + 0.18 p[2,0] + 0.018 p[2,1] + 0.0018 p[2,2] + 0.00018 p[2,3]
   + 0.027 p[3,0] + 0.0027 p[3,1] + 0.00027 p[3,2] + 2.7e-05 p[3,3]
   + 0.0036 p[4,0] + 0.00036 p[4,1] + 3.6e-05 p[4,2] + 3.6e-06 p[4,3]
   <= 0.2036
 B_lb_1,_1: 0.81 p[1,1] + 0.162 p[1,2] + 0.0243 p[1,3] + 0.162 p[2,1]
   + 0.0324 p[2,2] + 0.00486 p[2,3] + 0.0243 p[3,1] + 0.00486 p[3,2]
   + 0.000729 p[3,3] + 0.00324 p[4,1] + 0.000648 p[4,2] + 9.72e-05 p[4,3]
   >= 0.0396148148148148
 B_ub_1,_1: 0.81 p[1,1] + 0.162 p[1,2] + 0.0243 p[1,3] + 0.162 p[2,1]
   + 0.0324 p[2,2] + 0.00486 p[2,3] + 0.0243 p[3,1] + 0.00486 p[3,2]
   + 0.000729 p[3,3] + 0.00324 p[4,1] + 0.000648 p[4,2] + 9.72e-05 p[4,3]
   <= 0.1042
 B_lb_1,_2: 0.729 p[1,2] + 0.2187 p[1,3] + 0.1458 p[2,2] + 0.04374 p[2,3]
   + 0.02187 p[3,2] + 0.006561 p[3,3] + 0.002916 p[4,2] + 0.0008748 p[4,3]
   >= -0.0331851851851852
 B_ub_1,_2: 0.729 p[1,2] + 0.2187 p[1,3] + 0.1458 p[2,2] + 0.04374 p[2,3]
   + 0.02187 p[3,2] + 0.006561 p[3,3] + 0.002916 p[4,2] + 0.0008748 p[4,3]
   <= 0.0224
 B_lb_1,_3: 0.6561 p[1,3] + 0.13122 p[2,3] + 0.019683 p[3,3]
   + 0.0026244 p[4,3] >= -0.0467851851851852
 B_ub_1,_3: 0.6561 p[1,3] + 0.13122 p[2,3] + 0.019683 p[3,3]
   + 0.0026244 p[4,3] <= 0.0044
 B_lb_2,_0: 0.81 p[2,0] + 0.081 p[2,1] + 0.0081 p[2,2] + 0.00081 p[2,3]
   + 0.243 p[3,0] + 0.0243 p[3,1] + 0.00243 p[3,2] + 0.000243 p[3,3]
   + 0.0486 p[4,0] + 0.00486 p[4,1] + 0.000486 p[4,2] + 4.86e-05 p[4,3]
   >= 0.00881481481481484
 B_ub_2,_0: 0.81 p[2,0] + 0.081 p[2,1] + 0.0081 p[2,2] + 0.00081 p[2,3]
   + 0.243 p[3,0] + 0.0243 p[3,1] + 0.00243 p[3,2] + 0.000243 p[3,3]
   + 0.0486 p[4,0] + 0.00486 p[4,1] + 0.000486 p[4,2] + 4.86e-05 p[4,3]
   <= 0.0704
 B_lb_2,_1: 0.729 p[2,1] + 0.1458 p[2,2] + 0.02187 p[2,3] + 0.2187 p[3,1]
   + 0.04374 p[3,2] + 0.006561 p[3,3] + 0.04374 p[4,1] + 0.008748 p[4,2]
   + 0.0013122 p[4,3] >= -0.0289851851851852
 B_ub_2,_1: 0.729 p[2,1] + 0.1458 p[2,2] + 0.02187 p[2,3] + 0.2187 p[3,1]
   + 0.04374 p[3,2] + 0.006561 p[3,3] + 0.04374 p[4,1] + 0.008748 p[4,2]
   + 0.0013122 p[4,3] <= 0.0276
 B_lb_2,_2: 0.6561 p[2,2] + 0.19683 p[2,3] + 0.19683 p[3,2]
   + 0.059049 p[3,3] + 0.039366 p[4,2] + 0.0118098 p[4,3]
   >= -0.0443851851851852
 B_ub_2,_2: 0.6561 p[2,2] + 0.19683 p[2,3] + 0.19683 p[3,2]
   + 0.059049 p[3,3] + 0.039366 p[4,2] + 0.0118098 p[4,3] <= 0.008
 B_lb_2,_3: 0.59049 p[2,3] + 0.177147 p[3,3] + 0.0354294 p[4,3]
   >= -0.0481851851851852
 B_ub_2,_3: 0.59049 p[2,3] + 0.177147 p[3,3] + 0.0354294 p[4,3] <= 1
 B_lb_3,_0: 0.729 p[3,0] + 0.0729 p[3,1] + 0.00729 p[3,2] + 0.000729 p[3,3]
   + 0.2916 p[4,0] + 0.02916 p[4,1] + 0.002916 p[4,2] + 0.0002916 p[4,3]
   >= -0.0333851851851852
 B_ub_3,_0: 0.729 p[3,0] + 0.0729 p[3,1] + 0.00729 p[3,2] + 0.000729 p[3,3]
   + 0.2916 p[4,0] + 0.02916 p[4,1] + 0.002916 p[4,2] + 0.0002916 p[4,3]
   <= 0.0222
 B_lb_3,_1: 0.6561 p[3,1] + 0.13122 p[3,2] + 0.019683 p[3,3]
   + 0.26244 p[4,1] + 0.052488 p[4,2] + 0.0078732 p[4,3]
   >= -0.0461851851851852
 B_ub_3,_1: 0.6561 p[3,1] + 0.13122 p[3,2] + 0.019683 p[3,3]
   + 0.26244 p[4,1] + 0.052488 p[4,2] + 0.0078732 p[4,3] <= 0.0054
 B_lb_3,_2: 0.59049 p[3,2] + 0.177147 p[3,3] + 0.236196 p[4,2]
   + 0.0708588 p[4,3] >= -0.0481851851851852
 B_ub_3,_2: 0.59049 p[3,2] + 0.177147 p[3,3] + 0.236196 p[4,2]
   + 0.0708588 p[4,3] <= 1
 B_lb_3,_3: 0.531441 p[3,3] + 0.2125763999999906 p[4,3]
   >= -0.0481851851851852
 B_ub_3,_3: 0.531441 p[3,3] + 0.2125763999999906 p[4,3] <= 1
 B_lb_4,_0: 0.6561 p[4,0] + 0.06561 p[4,1] + 0.006561 p[4,2]
   + 0.0006561 p[4,3] >= -0.0471851851851852
 B_ub_4,_0: 0.6561 p[4,0] + 0.06561 p[4,1] + 0.006561 p[4,2]
   + 0.0006561 p[4,3] <= 0.0036
 B_lb_4,_1: 0.59049 p[4,1] + 0.118098 p[4,2] + 0.0177147 p[4,3]
   >= -0.0481851851851852
 B_ub_4,_1: 0.59049 p[4,1] + 0.118098 p[4,2] + 0.0177147 p[4,3] <= 1
 B_lb_4,_2: 0.531441 p[4,2] + 0.159432299999993 p[4,3]
   >= -0.0481851851851852
 B_ub_4,_2: 0.531441 p[4,2] + 0.159432299999993 p[4,3] <= 1
 B_lb_4,_3: 0.4782968999999902 p[4,3] >= -0.0481851851851852
 B_ub_4,_3: 0.4782968999999902 p[4,3] <= 1
 B_marginal_lb_0: p1[0] + 0.1 p1[1] + 0.01 p1[2] + 0.001 p1[3]
   + 0.0001 p1[4] >= 0.4214
 B_marginal_ub_0: p1[0] + 0.1 p1[1] + 0.01 p1[2] + 0.001 p1[3]
   + 0.0001 p1[4] <= 0.5834
 B_marginal_lb_1: 0.9 p1[1] + 0.18 p1[2] + 0.027 p1[3] + 0.0036 p1[4]
   >= 0.1638
 B_marginal_ub_1: 0.9 p1[1] + 0.18 p1[2] + 0.027 p1[3] + 0.0036 p1[4]
   <= 0.3236
 B_marginal_lb_2: 0.81 p1[2] + 0.243 p1[3] + 0.0486 p1[4] >= -0.0482
 B_marginal_ub_2: 0.81 p1[2] + 0.243 p1[3] + 0.0486 p1[4] <= 0.1014
 B_marginal_lb_3: 0.729 p1[3] + 0.2916 p1[4] >= -0.1152
 B_marginal_ub_3: 0.729 p1[3] + 0.2916 p1[4] <= 0.0272
 B_marginal_lb_4: 0.6561 p1[4] >= -0.1324
 B_marginal_ub_4: 0.6561 p1[4] <= 0.0046
 B_marginal_lb_0: p2[0] + 0.1 p2[1] + 0.01 p2[2] + 0.001 p2[3]
   >= 0.3856777777777778
 B_marginal_ub_0: p2[0] + 0.1 p2[1] + 0.01 p2[2] + 0.001 p2[3] <= 0.578405
 B_marginal_lb_1: 0.9 p2[1] + 0.18 p2[2] + 0.027 p2[3]
   >= 0.1402727777777778
 B_marginal_ub_1: 0.9 p2[1] + 0.18 p2[2] + 0.027 p2[3] <= 0.3322
 B_marginal_lb_2: 0.81 p2[2] + 0.243 p2[3] >= -0.0789222222222222
 B_marginal_ub_2: 0.81 p2[2] + 0.243 p2[3] <= 0.1032
 B_marginal_lb_3: 0.729 p2[3] >= -0.1521222222222222
 B_marginal_ub_3: 0.729 p2[3] <= 0.0208
 frechet_lb_0,_0: - p[0,0] + p1[0] + p2[0] <= 1
 frechet_ub_x1_0: p[0,0] - p1[0] <= 0
 frechet_ub_x2_0: p[0,0] - p2[0] <= 0
 frechet_lb_0,_1: - p[0,1] + p1[0] + p2[1] <= 1
 frechet_ub_x1_0: p[0,1] - p1[0] <= 0
 frechet_ub_x2_1: p[0,1] - p2[1] <= 0
 frechet_lb_0,_2: - p[0,2] + p1[0] + p2[2] <= 1
 frechet_ub_x1_0: p[0,2] - p1[0] <= 0
 frechet_ub_x2_2: p[0,2] - p2[2] <= 0
 frechet_lb_0,_3: - p[0,3] + p1[0] + p2[3] <= 1
 frechet_ub_x1_0: p[0,3] - p1[0] <= 0
 frechet_ub_x2_3: p[0,3] - p2[3] <= 0
 frechet_lb_1,_0: - p[1,0] + p1[1] + p2[0] <= 1
 frechet_ub_x1_1: p[1,0] - p1[1] <= 0
 frechet_ub_x2_0: p[1,0] - p2[0] <= 0
 frechet_lb_1,_1: - p[1,1] + p1[1] + p2[1] <= 1
 frechet_ub_x1_1: p[1,1] - p1[1] <= 0
 frechet_ub_x2_1: p[1,1] - p2[1] <= 0
 frechet_lb_1,_2: - p[1,2] + p1[1] + p2[2] <= 1
 frechet_ub_x1_1: p[1,2] - p1[1] <= 0
 frechet_ub_x2_2: p[1,2] - p2[2] <= 0
 frechet_lb_1,_3: - p[1,3] + p1[1] + p2[3] <= 1
 frechet_ub_x1_1: p[1,3] - p1[1] <= 0
 frechet_ub_x2_3: p[1,3] - p2[3] <= 0
 frechet_lb_2,_0: - p[2,0] + p1[2] + p2[0] <= 1
 frechet_ub_x1_2: p[2,0] - p1[2] <= 0
 frechet_ub_x2_0: p[2,0] - p2[0] <= 0
 frechet_lb_2,_1: - p[2,1] + p1[2] + p2[1] <= 1
 frechet_ub_x1_2: p[2,1] - p1[2] <= 0
 frechet_ub_x2_1: p[2,1] - p2[1] <= 0
 frechet_lb_2,_2: - p[2,2] + p1[2] + p2[2] <= 1
 frechet_ub_x1_2: p[2,2] - p1[2] <= 0
 frechet_ub_x2_2: p[2,2] - p2[2] <= 0
 frechet_lb_2,_3: - p[2,3] + p1[2] + p2[3] <= 1
 frechet_ub_x1_2: p[2,3] - p1[2] <= 0
 frechet_ub_x2_3: p[2,3] - p2[3] <= 0
 frechet_lb_3,_0: - p[3,0] + p1[3] + p2[0] <= 1
 frechet_ub_x1_3: p[3,0] - p1[3] <= 0
 frechet_ub_x2_0: p[3,0] - p2[0] <= 0
 frechet_lb_3,_1: - p[3,1] + p1[3] + p2[1] <= 1
 frechet_ub_x1_3: p[3,1] - p1[3] <= 0
 frechet_ub_x2_1: p[3,1] - p2[1] <= 0
 frechet_lb_3,_2: - p[3,2] + p1[3] + p2[2] <= 1
 frechet_ub_x1_3: p[3,2] - p1[3] <= 0
 frechet_ub_x2_2: p[3,2] - p2[2] <= 0
 frechet_lb_3,_3: - p[3,3] + p1[3] + p2[3] <= 1
 frechet_ub_x1_3: p[3,3] - p1[3] <= 0
 frechet_ub_x2_3: p[3,3] - p2[3] <= 0
 frechet_lb_4,_0: - p[4,0] + p1[4] + p2[0] <= 1
 frechet_ub_x1_4: p[4,0] - p1[4] <= 0
 frechet_ub_x2_0: p[4,0] - p2[0] <= 0
 frechet_lb_4,_1: - p[4,1] + p1[4] + p2[1] <= 1
 frechet_ub_x1_4: p[4,1] - p1[4] <= 0
 frechet_ub_x2_1: p[4,1] - p2[1] <= 0
 frechet_lb_4,_2: - p[4,2] + p1[4] + p2[2] <= 1
 frechet_ub_x1_4: p[4,2] - p1[4] <= 0
 frechet_ub_x2_2: p[4,2] - p2[2] <= 0
 frechet_lb_4,_3: - p[4,3] + p1[4] + p2[3] <= 1
 frechet_ub_x1_4: p[4,3] - p1[4] <= 0
 frechet_ub_x2_3: p[4,3] - p2[3] <= 0
 Distribution: p[0,0] + p[0,1] + p[0,2] + p[0,3] + p[1,0] + p[1,1] + p[1,2]
   + p[1,3] + p[2,0] + p[2,1] + p[2,2] + p[2,3] + p[3,0] + p[3,1] + p[3,2]
   + p[3,3] + p[4,0] + p[4,1] + p[4,2] + p[4,3] <= 1
 Distribution_x1: p1[0] + p1[1] + p1[2] + p1[3] + p1[4] <= 1
 Distribution_x2: p2[0] + p2[1] + p2[2] + p2[3] <= 1
 Equation_0,_0: [ - p[0,0] * k_tx_1 - p[0,0] * k_tx_2 + p[0,1] * k_deg_2
   + p[1,0] * k_deg_1 + p[1,1] * k_reg ] = 0
 Equation_0,_1: [ p[0,0] * k_tx_2 - p[0,1] * k_tx_1 - p[0,1] * k_tx_2
   - p[0,1] * k_deg_2 + 2 p[0,2] * k_deg_2 + p[1,1] * k_deg_1
   + 2 p[1,2] * k_reg ] = 0
 Equation_0,_2: [ p[0,1] * k_tx_2 - p[0,2] * k_tx_1 - p[0,2] * k_tx_2
   - 2 p[0,2] * k_deg_2 + 3 p[0,3] * k_deg_2 + p[1,2] * k_deg_1
   + 3 p[1,3] * k_reg ] = 0
 Equation_1,_0: [ p[0,0] * k_tx_1 - p[1,0] * k_tx_1 - p[1,0] * k_tx_2
   - p[1,0] * k_deg_1 + p[1,1] * k_deg_2 + 2 p[2,0] * k_deg_1
   + 2 p[2,1] * k_reg ] = 0
 Equation_1,_1: [ p[0,1] * k_tx_1 + p[1,0] * k_tx_2 - p[1,1] * k_tx_1
   - p[1,1] * k_tx_2 - p[1,1] * k_deg_1 - p[1,1] * k_deg_2 - p[1,1] * k_reg
   + 2 p[1,2] * k_deg_2 + 2 p[2,1] * k_deg_1 + 4 p[2,2] * k_reg ] = 0
 Equation_1,_2: [ p[0,2] * k_tx_1 + p[1,1] * k_tx_2 - p[1,2] * k_tx_1
   - p[1,2] * k_tx_2 - p[1,2] * k_deg_1 - 2 p[1,2] * k_deg_2
   - 2 p[1,2] * k_reg + 3 p[1,3] * k_deg_2 + 2 p[2,2] * k_deg_1
   + 6 p[2,3] * k_reg ] = 0
 Equation_2,_0: [ p[1,0] * k_tx_1 - p[2,0] * k_tx_1 - p[2,0] * k_tx_2
   - 2 p[2,0] * k_deg_1 + p[2,1] * k_deg_2 + 3 p[3,0] * k_deg_1
   + 3 p[3,1] * k_reg ] = 0
 Equation_2,_1: [ p[1,1] * k_tx_1 + p[2,0] * k_tx_2 - p[2,1] * k_tx_1
   - p[2,1] * k_tx_2 - 2 p[2,1] * k_deg_1 - p[2,1] * k_deg_2
   - 2 p[2,1] * k_reg + 2 p[2,2] * k_deg_2 + 3 p[3,1] * k_deg_1
   + 6 p[3,2] * k_reg ] = 0
 Equation_2,_2: [ p[1,2] * k_tx_1 + p[2,1] * k_tx_2 - p[2,2] * k_tx_1
   - p[2,2] * k_tx_2 - 2 p[2,2] * k_deg_1 - 2 p[2,2] * k_deg_2
   - 4 p[2,2] * k_reg + 3 p[2,3] * k_deg_2 + 3 p[3,2] * k_deg_1
   + 9 p[3,3] * k_reg ] = 0
 Equation_3,_0: [ p[2,0] * k_tx_1 - p[3,0] * k_tx_1 - p[3,0] * k_tx_2
   - 3 p[3,0] * k_deg_1 + p[3,1] * k_deg_2 + 4 p[4,0] * k_deg_1
   + 4 p[4,1] * k_reg ] = 0
 Equation_3,_1: [ p[2,1] * k_tx_1 + p[3,0] * k_tx_2 - p[3,1] * k_tx_1
   - p[3,1] * k_tx_2 - 3 p[3,1] * k_deg_1 - p[3,1] * k_deg_2
   - 3 p[3,1] * k_reg + 2 p[3,2] * k_deg_2 + 4 p[4,1] * k_deg_1
   + 8 p[4,2] * k_reg ] = 0
 Equation_3,_2: [ p[2,2] * k_tx_1 + p[3,1] * k_tx_2 - p[3,2] * k_tx_1
   - p[3,2] * k_tx_2 - 3 p[3,2] * k_deg_1 - 2 p[3,2] * k_deg_2
   - 6 p[3,2] * k_reg + 3 p[3,3] * k_deg_2 + 4 p[4,2] * k_deg_1
   + 12 p[4,3] * k_reg ] = 0
Bounds
 p[0,0] <= 1
 p[0,1] <= 1
 p[0,2] <= 1
 p[0,3] <= 1
 p[1,0] <= 1
 p[1,1] <= 1
 p[1,2] <= 1
 p[1,3] <= 1
 p[2,0] <= 1
 p[2,1] <= 1
 p[2,2] <= 1
 p[2,3] <= 1
 p[3,0] <= 1
 p[3,1] <= 1
 p[3,2] <= 1
 p[3,3] <= 1
 p[4,0] <= 1
 p[4,1] <= 1
 p[4,2] <= 1
 p[4,3] <= 1
 p1[0] <= 1
 p1[1] <= 1
 p1[2] <= 1
 p1[3] <= 1
 p1[4] <= 1
 p2[0] <= 1
 p2[1] <= 1
 p2[2] <= 1
 p2[3] <= 1
 k_tx_1 <= 10
 k_tx_2 <= 10
 k_deg_1 <= 10
 k_deg_2 <= 10
 k_reg <= 10
End
